&CONTROL
  calculation = 'scf'
  prefix = 'gr'
  pseudo_dir = './pseudo/'         
  outdir = './out/'
  verbosity = 'high'
/

&SYSTEM
  a   = 2.59148
  c  = 20
  ibrav       = 4
  nat         = 2
  ntyp        = 1
  nbnd        = 30
  degauss     =  0.02
  ecutwfc     =  80
  occupations = 'smearing'
  smearing    = 'gaussian'
/

&ELECTRONS
  conv_thr =   1.0d-6
  mixing_beta =  0.7
/

ATOMIC_SPECIES
 C  12.011  C.upf

ATOMIC_POSITIONS crystal
C  0.33333  0.66667  0.5
C  0.66667  0.33333  0.5

K_POINTS automatic
12 12 1 0 0 0
