&CONTROL
  calculation = 'scf'
  etot_conv_thr =   2.0000000000d-05
  forc_conv_thr =   1.0000000000d-04
  outdir = './out/'
  prefix = 'gr'
  pseudo_dir = './pseudo/'
  tprnfor = .true.
  tstress = .true.
  verbosity = 'high'
/
&SYSTEM
  degauss =   1.4699723600d-02
  ecutrho =   2.4000000000d+02
  ecutwfc =   3.0000000000d+01
  ibrav = 0
  nat = 2
  nosym = .false.
  ntyp = 1
  occupations = 'smearing'
  smearing = 'cold'
/
&ELECTRONS
  conv_thr =   4.0000000000d-10
  electron_maxstep = 80
  mixing_beta =   4.0000000000d-01
/
ATOMIC_SPECIES
C      12.0107 C.pbe-n-kjpaw_psl.1.0.0.UPF
ATOMIC_POSITIONS crystal
C            0.3333300000       0.6666700000       0.5 
C            0.6666700000       0.3333300000       0.5
K_POINTS automatic
15 15 1 0 0 0

CELL_PARAMETERS angstrom
      2.4153600000       0.0000000000       0.0000000000
     -1.2076800000       2.0917631193       0.0000000000
      0.0000000000       0.0000000000      20.0000000000
