!    ibrav = 0, nat = 8, ntyp = 1
CELL_PARAMETERS bohr
    9.5091019216340413    0.0000000000000000    0.0000000000000000
   -4.7545509608170207    8.2351238312286856    0.0000000000000000
    0.0000000000000000    0.0000000000000000   37.7945227409938056
ATOMIC_SPECIES
  C   12.01070   C.pbe-n-kjpaw_psl.1.0.0.UPF
ATOMIC_POSITIONS crystal
  C   0.1666650000000000  0.3333350000000000  0.5000000000000000
  C   0.6666650000000001  0.3333350000000000  0.5000000000000000
  C   0.1666650000000000  0.8333349999999999  0.5000000000000000
  C   0.6666650000000001  0.8333349999999999  0.5000000000000000
  C   0.3333350000000000  0.1666650000000000  0.5000000000000000
  C   0.8333349999999999  0.1666650000000000  0.5000000000000000
  C   0.3333350000000000  0.6666650000000001  0.5000000000000000
  C   0.8333349999999999  0.6666650000000001  0.5000000000000000