!    ibrav = 0, nat = 8, ntyp = 1
CELL_PARAMETERS bohr
    9.6992839600667224    0.0000000000000000    0.0000000000000000
   -4.8496419800333612    8.3998263077852293    0.0000000000000000
    0.0000000000000000    0.0000000000000000   37.7945227409938056
ATOMIC_SPECIES
  C   12.01070   C.pbe-n-kjpaw_psl.1.0.0.UPF
ATOMIC_POSITIONS crystal
  C   0.1671775674831070  0.3333350000000000  0.5005125674831070
  C   0.6666650000000001  0.3333350000000000  0.4999999999999999
  C   0.1666650000000000  0.8333349999999999  0.4999999999999999
  C   0.6666650000000001  0.8333349999999999  0.4999999999999999
  C   0.3333350000000000  0.1666650000000000  0.4999999999999999
  C   0.8333350000000000  0.1666650000000000  0.4999999999999999
  C   0.3333350000000000  0.6666650000000001  0.4999999999999999
  C   0.8333350000000000  0.6666650000000001  0.4999999999999999