&CONTROL
  calculation = 'scf'
  etot_conv_thr =   2.0000000000d-05
  forc_conv_thr =   1.0000000000d-04
  outdir = './out/'
  prefix = 'aiida'
  pseudo_dir = '../../../pseudo/'
  tprnfor = .true.
  tstress = .true.
  verbosity = 'high'
/
&SYSTEM
  degauss =   2.0000000000d-02
  ecutrho =   2.4000000000d+02
  ecutwfc =   3.0000000000d+01
  ibrav = 0
  nat = 8
  nosym = .false.
  ntyp = 1
  occupations = 'smearing'
  smearing = 'cold'
/
&ELECTRONS
  conv_thr =   4.0000000000d-6
  electron_maxstep = 80
  mixing_beta =   4.0000000000d-01
/

K_POINTS automatic
2 2 1 0 0 0
!    ibrav = 0, nat = 8, ntyp = 1
CELL_PARAMETERS bohr
    9.8894659984994018    0.0000000000000000    0.0000000000000000
   -4.9447329992497009    8.5645287843417730    0.0000000000000000
    0.0000000000000000    0.0000000000000000   37.7945227409938056
ATOMIC_SPECIES
  C   12.01070   C.pbesol-n-kjpaw_psl.1.0.0.UPF
ATOMIC_POSITIONS crystal
  C   0.1605979383397340  0.3333350000000000  0.4999999999999999
  C   0.6666650000000002  0.3333350000000000  0.4999999999999999
  C   0.1666650000000000  0.8333349999999999  0.4999999999999999
  C   0.6666650000000002  0.8333349999999999  0.4999999999999999
  C   0.3333350000000000  0.1666650000000000  0.4999999999999999
  C   0.8333349999999999  0.1666650000000000  0.4999999999999999
  C   0.3333350000000000  0.6666650000000001  0.4999999999999999
  C   0.8317991754163591  0.6666650000000001  0.4984641754163591