&BANDS
 outdir='./out/',
 prefix='graphene',
 filband='graphene.bands',
/
