&control
    calculation = 'scf'
    prefix = 'graphene'
    pseudo_dir = './pseudo'
    outdir = './out'
/
&system
    ibrav = 4
    a = 2.46
    c = 15.0
    nat = 2
    ntyp = 1
    ecutwfc = 50.0
    ecutrho = 200.0
    occupations = 'smearing'
    smearing = 'mp'
    degauss = 0.01
/
&electrons
    mixing_mode = 'plain'
    mixing_beta = 0.7
    conv_thr = 1.0d-8
/
ATOMIC_SPECIES
    C  12.011   C.upf
ATOMIC_POSITIONS (crystal)
C  0.33333  0.66667  0.60471
C  0.66667  0.33333  0.58279
K_POINTS automatic
21 21 1 0 0 0

