&CONTROL
  calculation = 'scf'
  etot_conv_thr =   2.0000000000d-05
  forc_conv_thr =   1.0000000000d-04
  outdir = './out/'
  prefix = 'aiida'
  pseudo_dir = '../../../pseudo/'
  tprnfor = .true.
  tstress = .true.
  verbosity = 'high'
/
&SYSTEM
  degauss =   2.0000000000d-02
  ecutrho =   3.6000000000d+02
  ecutwfc =   4.5000000000d+01
  ibrav = 0
  nat = 8
  nosym = .false.
  ntyp = 1
  occupations = 'smearing'
  smearing = 'cold'
/
&ELECTRONS
  conv_thr =   4.0000000000d-6
  electron_maxstep = 80
  mixing_beta =   4.0000000000d-01
/

K_POINTS automatic
2 2 1 0 0 0
!    ibrav = 0, nat = 8, ntyp = 1
CELL_PARAMETERS bohr
    9.3189198832013602    0.0000000000000000    0.0000000000000000
   -4.6594599416006801    8.0704213546721437    0.0000000000000000
    0.0000000000000000    0.0000000000000000   37.7945227409938056
ATOMIC_SPECIES
  C   12.01070   C.pbesol-n-kjpaw_psl.1.0.0.UPF
ATOMIC_POSITIONS crystal
  C   0.1731035144149762  0.3333350000000000  0.4999999999999999
  C   0.6666650000000001  0.3333350000000000  0.4999999999999999
  C   0.1666650000000000  0.8333349999999998  0.4999999999999999
  C   0.6666650000000001  0.8333349999999998  0.4999999999999999
  C   0.3333350000000000  0.1666650000000000  0.4999999999999999
  C   0.8333349999999999  0.1666650000000000  0.4999999999999999
  C   0.3317936314500063  0.6666650000000001  0.4984586314500062
  C   0.8333349999999999  0.6666650000000001  0.4999999999999999